\ENCODING=ISO-8859-1
\Problem name: IloCplex

Maximize
 obj: 12 x1 + 24 x2 + 9.33333333333333 x3 + 18.6666666666667 x4 + 6 x5 + 12 x6
      + 3.33333333333333 x7 + 6.66666666666667 x8 + 2.33333333333333 x9
      + 4.66666666666667 x10 + 1.66666666666667 x11 + 3.33333333333333 x12
      + 6 x13 + 12 x14 + 11 x15 + 22 x16 + 1.66666666666667 x17
      + 3.33333333333333 x18
Subject To
 c1:   x19 + x20 + x21 + x22 + x23 + x24 + x25 + x26 + x27  = 2
 c2:   x28 + x29 + x30 + x31 + x32 + x33 + x34 + x35 + x36  = 2
 c3:   - x1 + x19 + x37 + x38 + x39 + x40 + x41 + x42 + x43 + x44  = 0
 c4:   - x1 + x28 + x45 + x46 + x47 + x48 + x49 + x50 + x51 + x52  = 0
 c5:   - x3 + x20 + x45 + x53 + x54 + x55 + x56 + x57 + x58 + x59  = 0
 c6:   - x3 + x29 + x37 + x60 + x61 + x62 + x63 + x64 + x65 + x66  = 0
 c7:   - x5 + x21 + x46 + x60 + x67 + x68 + x69 + x70 + x71 + x72  = 0
 c8:   - x5 + x30 + x38 + x53 + x73 + x74 + x75 + x76 + x77 + x78  = 0
 c9:   - x7 + x22 + x47 + x61 + x73 + x79 + x80 + x81 + x82 + x83  = 0
 c10:  - x7 + x31 + x39 + x54 + x67 + x84 + x85 + x86 + x87 + x88  = 0
 c11:  - x9 + x23 + x48 + x62 + x74 + x84 + x89 + x90 + x91 + x92  = 0
 c12:  - x9 + x32 + x40 + x55 + x68 + x79 + x93 + x94 + x95 + x96  = 0
 c13:  - x11 + x24 + x49 + x63 + x75 + x85 + x93 + x97 + x98 + x99  = 0
 c14:  - x11 + x33 + x41 + x56 + x69 + x80 + x89 + x100 + x101 + x102  = 0
 c15:  - x13 + x25 + x50 + x64 + x76 + x86 + x94 + x100 + x103 + x104  = 0
 c16:  - x13 + x34 + x42 + x57 + x70 + x81 + x90 + x97 + x105 + x106  = 0
 c17:  - x15 + x26 + x51 + x65 + x77 + x87 + x95 + x101 + x105 + x107  = 0
 c18:  - x15 + x35 + x43 + x58 + x71 + x82 + x91 + x98 + x103 + x108  = 0
 c19:  - x17 + x27 + x52 + x66 + x78 + x88 + x96 + x102 + x106 + x108  = 0
 c20:  - x17 + x36 + x44 + x59 + x72 + x83 + x92 + x99 + x104 + x107  = 0
 c21:  - 1.81099598869479 x19 + x109  = 0
 c22:  - 1.53468720629302 x20 + x110  = 0
 c23:  - 1.68819706379379 x21 + x111  = 0
 c24:  - 1.96425140436175 x22 + x112  = 0
 c25:  - 1.5935118156464 x23 + x113  = 0
 c26:  - 1.1058125856977 x24 + x114  = 0
 c27:  - 1.23396885127077 x25 + x115  = 0
 c28:  - 3.03404093027621 x26 + x116  = 0
 c29:  - 1.40633055210847 x27 + x117  = 0
 c30:  - 15 x2 - 1.81099598869479 x28 - 1.71427824966877 x45
       - 1.63373579109847 x46 - 1.54667411939362 x47 - 2.66499775860885 x48
       - 1.47428460498316 x49 - 2.11459732516719 x50 - 2.47583034380618 x51
       - 2.63950540616256 x52 - x109 + x118 + x119 + x120 + x121 + x122 + x123
       + x124 + x125 + x126 - x127 - x128 - x129 - x130 - x131 - x132 - x133
       - x134  = 0
 c31:  - 15 x4 - 1.53468720629302 x29 - 1.71427824966877 x37
       - 0.216828329976472 x60 - 0.578725996169176 x61 - 1.11887494782396 x62
       - 2.24399002214792 x63 - 0.662500900372538 x64 - 1.51809222070624 x65
       - 2.93113438161421 x66 - x110 - x118 + x127 + x135 + x136 + x137 + x138
       + x139 + x140 + x141 + x142 - x143 - x144 - x145 - x146 - x147 - x148
       - x149  = 0
 c32:  - 15 x6 - 1.68819706379379 x30 - 1.63373579109847 x38
       - 0.216828329976472 x53 - 0.361969077385973 x73 - 1.31969376993062 x74
       - 2.31264599362895 x75 - 0.879011065051145 x76 - 1.34627655317322 x77
       - 3.06876465267663 x78 - x111 - x119 + x128 - x135 + x143 + x150 + x151
       + x152 + x153 + x154 + x155 + x156 - x157 - x158 - x159 - x160 - x161
       - x162  = 0
 c33:  - 15 x8 - 1.96425140436175 x31 - 1.54667411939362 x39
       - 0.578725996169176 x54 - 0.361969077385973 x67 - 1.66700287619421 x84
       - 2.45541506813231 x85 - 1.24095291086942 x86 - 1.10510050735557 x87
       - 3.30910223806579 x88 - x112 - x120 + x129 - x136 + x144 - x150 + x157
       + x163 + x164 + x165 + x166 + x167 + x168 - x169 - x170 - x171 - x172
       - x173  = 0
 c34:  - 15 x10 - 1.5935118156464 x32 - 2.66499775860885 x40
       - 1.11887494782396 x55 - 1.31969376993062 x68 - 1.66700287619421 x79
       - 2.64823189931825 x93 - 0.550408631522071 x94 - 2.30150976840601 x95
       - 2.88079674441269 x96 - x113 - x121 + x130 - x137 + x145 - x151 + x158
       - x163 + x169 + x174 + x175 + x176 + x177 + x178 - x179 - x180 - x181
       - x182  = 0
 c35:  - 15 x12 - 1.1058125856977 x33 - 1.47428460498316 x41
       - 2.24399002214792 x56 - 2.31264599362895 x69 - 2.45541506813231 x80
       - 2.64823189931825 x89 - 2.2004951703944 x100 - 3.5531963041605 x101
       - 1.19329905521421 x102 - x114 - x122 + x131 - x138 + x146 - x152 + x159
       - x164 + x170 - x174 + x179 + x183 + x184 + x185 + x186 - x187 - x188
       - x189  = 0
 c36:  - 15 x14 - 1.23396885127077 x34 - 2.11459732516719 x42
       - 0.662500900372538 x57 - 0.879011065051145 x70 - 1.24095291086942 x81
       - 0.550408631522071 x90 - 2.2004951703944 x97 - 2.0774165652184 x105
       - 2.6167035316097 x106 - x115 - x123 + x132 - x139 + x147 - x153 + x160
       - x165 + x171 - x175 + x180 - x183 + x187 + x190 + x191 + x192 - x193
       - x194  = 0
 c37:  - 15 x16 - 3.03404093027621 x35 - 2.47583034380618 x43
       - 1.51809222070624 x58 - 1.34627655317322 x71 - 1.10510050735557 x82
       - 2.30150976840601 x91 - 3.5531963041605 x98 - 2.0774165652184 x103
       - 4.40426963723916 x108 - x116 - x124 + x133 - x140 + x148 - x154 + x161
       - x166 + x172 - x176 + x181 - x184 + x188 - x190 + x193 + x195 + x196
       - x197  = 0
 c38:  - 15 x18 - 1.40633055210847 x36 - 2.63950540616256 x44
       - 2.93113438161421 x59 - 3.06876465267663 x72 - 3.30910223806579 x83
       - 2.88079674441269 x92 - 1.19329905521421 x99 - 2.6167035316097 x104
       - 4.40426963723916 x107 - x117 - x125 + x134 - x141 + x149 - x155 + x162
       - x167 + x173 - x177 + x182 - x185 + x189 - x191 + x194 - x195 + x197
       + x198  = 0
 c39:  - 357.360494593837 x19 + x109 <= 0
 c40:  - 357.068865618386 x20 + x110 <= 0
 c41:  - 356.931235347323 x21 + x111 <= 0
 c42:  - 356.690897761934 x22 + x112 <= 0
 c43:  - 357.119203255587 x23 + x113 <= 0
 c44:  - 358.806700944786 x24 + x114 <= 0
 c45:  - 357.38329646839 x25 + x115 <= 0
 c46:  - 355.595730362761 x26 + x116 <= 0
 c47:  - 360 x27 + x117 <= 0
 c48:  - 357.068865618386 x45 + x118 <= 0
 c49:  - 356.931235347323 x46 + x119 <= 0
 c50:  - 356.690897761934 x47 + x120 <= 0
 c51:  - 357.119203255587 x48 + x121 <= 0
 c52:  - 358.806700944786 x49 + x122 <= 0
 c53:  - 357.38329646839 x50 + x123 <= 0
 c54:  - 355.595730362761 x51 + x124 <= 0
 c55:  - 360 x52 + x125 <= 0
 c56:  - 358.593669447892 x28 + x126 <= 0
 c57:  - 357.360494593837 x37 + x127 <= 0
 c58:  - 356.931235347323 x60 + x135 <= 0
 c59:  - 356.690897761934 x61 + x136 <= 0
 c60:  - 357.119203255587 x62 + x137 <= 0
 c61:  - 358.806700944786 x63 + x138 <= 0
 c62:  - 357.38329646839 x64 + x139 <= 0
 c63:  - 355.595730362761 x65 + x140 <= 0
 c64:  - 360 x66 + x141 <= 0
 c65:  - 358.593669447892 x29 + x142 <= 0
 c66:  - 357.360494593837 x38 + x128 <= 0
 c67:  - 357.068865618386 x53 + x143 <= 0
 c68:  - 356.690897761934 x73 + x150 <= 0
 c69:  - 357.119203255587 x74 + x151 <= 0
 c70:  - 358.806700944786 x75 + x152 <= 0
 c71:  - 357.38329646839 x76 + x153 <= 0
 c72:  - 355.595730362761 x77 + x154 <= 0
 c73:  - 360 x78 + x155 <= 0
 c74:  - 358.593669447892 x30 + x156 <= 0
 c75:  - 357.360494593837 x39 + x129 <= 0
 c76:  - 357.068865618386 x54 + x144 <= 0
 c77:  - 356.931235347323 x67 + x157 <= 0
 c78:  - 357.119203255587 x84 + x163 <= 0
 c79:  - 358.806700944786 x85 + x164 <= 0
 c80:  - 357.38329646839 x86 + x165 <= 0
 c81:  - 355.595730362761 x87 + x166 <= 0
 c82:  - 360 x88 + x167 <= 0
 c83:  - 358.593669447892 x31 + x168 <= 0
 c84:  - 357.360494593837 x40 + x130 <= 0
 c85:  - 357.068865618386 x55 + x145 <= 0
 c86:  - 356.931235347323 x68 + x158 <= 0
 c87:  - 356.690897761934 x79 + x169 <= 0
 c88:  - 358.806700944786 x93 + x174 <= 0
 c89:  - 357.38329646839 x94 + x175 <= 0
 c90:  - 355.595730362761 x95 + x176 <= 0
 c91:  - 360 x96 + x177 <= 0
 c92:  - 358.593669447892 x32 + x178 <= 0
 c93:  - 357.360494593837 x41 + x131 <= 0
 c94:  - 357.068865618386 x56 + x146 <= 0
 c95:  - 356.931235347323 x69 + x159 <= 0
 c96:  - 356.690897761934 x80 + x170 <= 0
 c97:  - 357.119203255587 x89 + x179 <= 0
 c98:  - 357.38329646839 x100 + x183 <= 0
 c99:  - 355.595730362761 x101 + x184 <= 0
 c100: - 360 x102 + x185 <= 0
 c101: - 358.593669447892 x33 + x186 <= 0
 c102: - 357.360494593837 x42 + x132 <= 0
 c103: - 357.068865618386 x57 + x147 <= 0
 c104: - 356.931235347323 x70 + x160 <= 0
 c105: - 356.690897761934 x81 + x171 <= 0
 c106: - 357.119203255587 x90 + x180 <= 0
 c107: - 358.806700944786 x97 + x187 <= 0
 c108: - 355.595730362761 x105 + x190 <= 0
 c109: - 360 x106 + x191 <= 0
 c110: - 358.593669447892 x34 + x192 <= 0
 c111: - 357.360494593837 x43 + x133 <= 0
 c112: - 357.068865618386 x58 + x148 <= 0
 c113: - 356.931235347323 x71 + x161 <= 0
 c114: - 356.690897761934 x82 + x172 <= 0
 c115: - 357.119203255587 x91 + x181 <= 0
 c116: - 358.806700944786 x98 + x188 <= 0
 c117: - 357.38329646839 x103 + x193 <= 0
 c118: - 360 x108 + x195 <= 0
 c119: - 358.593669447892 x35 + x196 <= 0
 c120: - 357.360494593837 x44 + x134 <= 0
 c121: - 357.068865618386 x59 + x149 <= 0
 c122: - 356.931235347323 x72 + x162 <= 0
 c123: - 356.690897761934 x83 + x173 <= 0
 c124: - 357.119203255587 x92 + x182 <= 0
 c125: - 358.806700944786 x99 + x189 <= 0
 c126: - 357.38329646839 x104 + x194 <= 0
 c127: - 355.595730362761 x107 + x197 <= 0
 c128: - 358.593669447892 x36 + x198 <= 0
 c129: - 1.81099598869479 x19 + x109 >= 0
 c130: - 1.53468720629302 x20 + x110 >= 0
 c131: - 1.68819706379379 x21 + x111 >= 0
 c132: - 1.96425140436175 x22 + x112 >= 0
 c133: - 1.5935118156464 x23 + x113 >= 0
 c134: - 1.1058125856977 x24 + x114 >= 0
 c135: - 1.23396885127077 x25 + x115 >= 0
 c136: - 3.03404093027621 x26 + x116 >= 0
 c137: - 1.40633055210847 x27 + x117 >= 0
 c138: - 3.52527423836356 x45 + x118 >= 0
 c139: - 3.44473177979326 x46 + x119 >= 0
 c140: - 3.35767010808841 x47 + x120 >= 0
 c141: - 4.47599374730364 x48 + x121 >= 0
 c142: - 3.28528059367795 x49 + x122 >= 0
 c143: - 3.92559331386199 x50 + x123 >= 0
 c144: - 4.28682633250097 x51 + x124 >= 0
 c145: - 4.45050139485735 x52 + x125 >= 0
 c146: - 3.62199197738959 x28 + x126 >= 0
 c147: - 3.24896545596179 x37 + x127 >= 0
 c148: - 1.75151553626949 x60 + x135 >= 0
 c149: - 2.1134132024622 x61 + x136 >= 0
 c150: - 2.65356215411698 x62 + x137 >= 0
 c151: - 3.77867722844095 x63 + x138 >= 0
 c152: - 2.19718810666556 x64 + x139 >= 0
 c153: - 3.05277942699927 x65 + x140 >= 0
 c154: - 4.46582158790724 x66 + x141 >= 0
 c155: - 3.06937441258604 x29 + x142 >= 0
 c156: - 3.32193285489225 x38 + x128 >= 0
 c157: - 1.90502539377026 x53 + x143 >= 0
 c158: - 2.05016614117976 x73 + x150 >= 0
 c159: - 3.00789083372441 x74 + x151 >= 0
 c160: - 4.00084305742273 x75 + x152 >= 0
 c161: - 2.56720812884493 x76 + x153 >= 0
 c162: - 3.03447361696701 x77 + x154 >= 0
 c163: - 4.75696171647041 x78 + x155 >= 0
 c164: - 3.37639412758757 x30 + x156 >= 0
 c165: - 3.51092552375537 x39 + x129 >= 0
 c166: - 2.54297740053093 x54 + x144 >= 0
 c167: - 2.32622048174773 x67 + x157 >= 0
 c168: - 3.63125428055597 x84 + x163 >= 0
 c169: - 4.41966647249406 x85 + x164 >= 0
 c170: - 3.20520431523117 x86 + x165 >= 0
 c171: - 3.06935191171733 x87 + x166 >= 0
 c172: - 5.27335364242755 x88 + x167 >= 0
 c173: - 3.92850280872351 x31 + x168 >= 0
 c174: - 4.25850957425525 x40 + x130 >= 0
 c175: - 2.71238676347036 x55 + x145 >= 0
 c176: - 2.91320558557703 x68 + x158 >= 0
 c177: - 3.26051469184062 x79 + x169 >= 0
 c178: - 4.24174371496466 x93 + x174 >= 0
 c179: - 2.14392044716847 x94 + x175 >= 0
 c180: - 3.89502158405241 x95 + x176 >= 0
 c181: - 4.47430856005909 x96 + x177 >= 0
 c182: - 3.18702363129281 x32 + x178 >= 0
 c183: - 2.58009719068086 x41 + x131 >= 0
 c184: - 3.34980260784562 x56 + x146 >= 0
 c185: - 3.41845857932664 x69 + x159 >= 0
 c186: - 3.56122765383001 x80 + x170 >= 0
 c187: - 3.75404448501595 x89 + x179 >= 0
 c188: - 3.30630775609209 x100 + x183 >= 0
 c189: - 4.6590088898582 x101 + x184 >= 0
 c190: - 2.29911164091191 x102 + x185 >= 0
 c191: - 2.21162517139539 x33 + x186 >= 0
 c192: - 3.34856617643796 x42 + x132 >= 0
 c193: - 1.89646975164331 x57 + x147 >= 0
 c194: - 2.11297991632192 x70 + x160 >= 0
 c195: - 2.47492176214019 x81 + x171 >= 0
 c196: - 1.78437748279284 x90 + x180 >= 0
 c197: - 3.43446402166517 x97 + x187 >= 0
 c198: - 3.31138541648917 x105 + x190 >= 0
 c199: - 3.85067238288047 x106 + x191 >= 0
 c200: - 2.46793770254154 x34 + x192 >= 0
 c201: - 5.50987127408238 x43 + x133 >= 0
 c202: - 4.55213315098245 x58 + x148 >= 0
 c203: - 4.38031748344943 x71 + x161 >= 0
 c204: - 4.13914143763178 x82 + x172 >= 0
 c205: - 5.33555069868221 x91 + x181 >= 0
 c206: - 6.58723723443671 x98 + x188 >= 0
 c207: - 5.11145749549461 x103 + x193 >= 0
 c208: - 7.43831056751537 x108 + x195 >= 0
 c209: - 6.06808186055241 x35 + x196 >= 0
 c210: - 4.04583595827103 x44 + x134 >= 0
 c211: - 4.33746493372269 x59 + x149 >= 0
 c212: - 4.4750952047851 x72 + x162 >= 0
 c213: - 4.71543279017427 x83 + x173 >= 0
 c214: - 4.28712729652116 x92 + x182 >= 0
 c215: - 2.59962960732269 x99 + x189 >= 0
 c216: - 4.02303408371817 x104 + x194 >= 0
 c217: - 5.81060018934764 x107 + x197 >= 0
 c218: - 2.81266110421694 x36 + x198 >= 0
 c219: - x1 + x2 <= 0
 c220: - x3 + x4 <= 0
 c221: - x5 + x6 <= 0
 c222: - x7 + x8 <= 0
 c223: - x9 + x10 <= 0
 c224: - x11 + x12 <= 0
 c225: - x13 + x14 <= 0
 c226: - x15 + x16 <= 0
 c227: - x17 + x18 <= 0
 c228: 1.81099598869479 x19 + 1.53468720629302 x20 + 1.68819706379379 x21
       + 1.96425140436175 x22 + 1.5935118156464 x23 + 1.1058125856977 x24
       + 1.23396885127077 x25 + 3.03404093027621 x26 + 1.40633055210847 x27
       + 1.81099598869479 x28 + 1.53468720629302 x29 + 1.68819706379379 x30
       + 1.96425140436175 x31 + 1.5935118156464 x32 + 1.1058125856977 x33
       + 1.23396885127077 x34 + 3.03404093027621 x35 + 1.40633055210847 x36
       + 1.71427824966877 x37 + 1.63373579109847 x38 + 1.54667411939362 x39
       + 2.66499775860885 x40 + 1.47428460498316 x41 + 2.11459732516719 x42
       + 2.47583034380618 x43 + 2.63950540616256 x44 + 1.71427824966877 x45
       + 1.63373579109847 x46 + 1.54667411939362 x47 + 2.66499775860885 x48
       + 1.47428460498316 x49 + 2.11459732516719 x50 + 2.47583034380618 x51
       + 2.63950540616256 x52 + 0.216828329976472 x53 + 0.578725996169176 x54
       + 1.11887494782396 x55 + 2.24399002214792 x56 + 0.662500900372538 x57
       + 1.51809222070624 x58 + 2.93113438161421 x59 + 0.216828329976472 x60
       + 0.578725996169176 x61 + 1.11887494782396 x62 + 2.24399002214792 x63
       + 0.662500900372538 x64 + 1.51809222070624 x65 + 2.93113438161421 x66
       + 0.361969077385973 x67 + 1.31969376993062 x68 + 2.31264599362895 x69
       + 0.879011065051145 x70 + 1.34627655317322 x71 + 3.06876465267663 x72
       + 0.361969077385973 x73 + 1.31969376993062 x74 + 2.31264599362895 x75
       + 0.879011065051145 x76 + 1.34627655317322 x77 + 3.06876465267663 x78
       + 1.66700287619421 x79 + 2.45541506813231 x80 + 1.24095291086942 x81
       + 1.10510050735557 x82 + 3.30910223806579 x83 + 1.66700287619421 x84
       + 2.45541506813231 x85 + 1.24095291086942 x86 + 1.10510050735557 x87
       + 3.30910223806579 x88 + 2.64823189931825 x89 + 0.550408631522071 x90
       + 2.30150976840601 x91 + 2.88079674441269 x92 + 2.64823189931825 x93
       + 0.550408631522071 x94 + 2.30150976840601 x95 + 2.88079674441269 x96
       + 2.2004951703944 x97 + 3.5531963041605 x98 + 1.19329905521421 x99
       + 2.2004951703944 x100 + 3.5531963041605 x101 + 1.19329905521421 x102
       + 2.0774165652184 x103 + 2.6167035316097 x104 + 2.0774165652184 x105
       + 2.6167035316097 x106 + 4.40426963723916 x107 + 4.40426963723916 x108
       <= 720
Bounds
 0 <= x1 <= 1
 0 <= x2 <= 1
 0 <= x3 <= 1
 0 <= x4 <= 1
 0 <= x5 <= 1
 0 <= x6 <= 1
 0 <= x7 <= 1
 0 <= x8 <= 1
 0 <= x9 <= 1
 0 <= x10 <= 1
 0 <= x11 <= 1
 0 <= x12 <= 1
 0 <= x13 <= 1
 0 <= x14 <= 1
 0 <= x15 <= 1
 0 <= x16 <= 1
 0 <= x17 <= 1
 0 <= x18 <= 1
 0 <= x19 <= 1
 0 <= x20 <= 1
 0 <= x21 <= 1
 0 <= x22 <= 1
 0 <= x23 <= 1
 0 <= x24 <= 1
 0 <= x25 <= 1
 0 <= x26 <= 1
 0 <= x27 <= 1
 0 <= x28 <= 1
 0 <= x29 <= 1
 0 <= x30 <= 1
 0 <= x31 <= 1
 0 <= x32 <= 1
 0 <= x33 <= 1
 0 <= x34 <= 1
 0 <= x35 <= 1
 0 <= x36 <= 1
 0 <= x37 <= 1
 0 <= x38 <= 1
 0 <= x39 <= 1
 0 <= x40 <= 1
 0 <= x41 <= 1
 0 <= x42 <= 1
 0 <= x43 <= 1
 0 <= x44 <= 1
 0 <= x45 <= 1
 0 <= x46 <= 1
 0 <= x47 <= 1
 0 <= x48 <= 1
 0 <= x49 <= 1
 0 <= x50 <= 1
 0 <= x51 <= 1
 0 <= x52 <= 1
 0 <= x53 <= 1
 0 <= x54 <= 1
 0 <= x55 <= 1
 0 <= x56 <= 1
 0 <= x57 <= 1
 0 <= x58 <= 1
 0 <= x59 <= 1
 0 <= x60 <= 1
 0 <= x61 <= 1
 0 <= x62 <= 1
 0 <= x63 <= 1
 0 <= x64 <= 1
 0 <= x65 <= 1
 0 <= x66 <= 1
 0 <= x67 <= 1
 0 <= x68 <= 1
 0 <= x69 <= 1
 0 <= x70 <= 1
 0 <= x71 <= 1
 0 <= x72 <= 1
 0 <= x73 <= 1
 0 <= x74 <= 1
 0 <= x75 <= 1
 0 <= x76 <= 1
 0 <= x77 <= 1
 0 <= x78 <= 1
 0 <= x79 <= 1
 0 <= x80 <= 1
 0 <= x81 <= 1
 0 <= x82 <= 1
 0 <= x83 <= 1
 0 <= x84 <= 1
 0 <= x85 <= 1
 0 <= x86 <= 1
 0 <= x87 <= 1
 0 <= x88 <= 1
 0 <= x89 <= 1
 0 <= x90 <= 1
 0 <= x91 <= 1
 0 <= x92 <= 1
 0 <= x93 <= 1
 0 <= x94 <= 1
 0 <= x95 <= 1
 0 <= x96 <= 1
 0 <= x97 <= 1
 0 <= x98 <= 1
 0 <= x99 <= 1
 0 <= x100 <= 1
 0 <= x101 <= 1
 0 <= x102 <= 1
 0 <= x103 <= 1
 0 <= x104 <= 1
 0 <= x105 <= 1
 0 <= x106 <= 1
 0 <= x107 <= 1
 0 <= x108 <= 1
 0 <= x109 <= 360
 0 <= x110 <= 360
 0 <= x111 <= 360
 0 <= x112 <= 360
 0 <= x113 <= 360
 0 <= x114 <= 360
 0 <= x115 <= 360
 0 <= x116 <= 360
 0 <= x117 <= 360
 0 <= x118 <= 360
 0 <= x119 <= 360
 0 <= x120 <= 360
 0 <= x121 <= 360
 0 <= x122 <= 360
 0 <= x123 <= 360
 0 <= x124 <= 360
 0 <= x125 <= 360
 0 <= x126 <= 360
 0 <= x127 <= 360
 0 <= x128 <= 360
 0 <= x129 <= 360
 0 <= x130 <= 360
 0 <= x131 <= 360
 0 <= x132 <= 360
 0 <= x133 <= 360
 0 <= x134 <= 360
 0 <= x135 <= 360
 0 <= x136 <= 360
 0 <= x137 <= 360
 0 <= x138 <= 360
 0 <= x139 <= 360
 0 <= x140 <= 360
 0 <= x141 <= 360
 0 <= x142 <= 360
 0 <= x143 <= 360
 0 <= x144 <= 360
 0 <= x145 <= 360
 0 <= x146 <= 360
 0 <= x147 <= 360
 0 <= x148 <= 360
 0 <= x149 <= 360
 0 <= x150 <= 360
 0 <= x151 <= 360
 0 <= x152 <= 360
 0 <= x153 <= 360
 0 <= x154 <= 360
 0 <= x155 <= 360
 0 <= x156 <= 360
 0 <= x157 <= 360
 0 <= x158 <= 360
 0 <= x159 <= 360
 0 <= x160 <= 360
 0 <= x161 <= 360
 0 <= x162 <= 360
 0 <= x163 <= 360
 0 <= x164 <= 360
 0 <= x165 <= 360
 0 <= x166 <= 360
 0 <= x167 <= 360
 0 <= x168 <= 360
 0 <= x169 <= 360
 0 <= x170 <= 360
 0 <= x171 <= 360
 0 <= x172 <= 360
 0 <= x173 <= 360
 0 <= x174 <= 360
 0 <= x175 <= 360
 0 <= x176 <= 360
 0 <= x177 <= 360
 0 <= x178 <= 360
 0 <= x179 <= 360
 0 <= x180 <= 360
 0 <= x181 <= 360
 0 <= x182 <= 360
 0 <= x183 <= 360
 0 <= x184 <= 360
 0 <= x185 <= 360
 0 <= x186 <= 360
 0 <= x187 <= 360
 0 <= x188 <= 360
 0 <= x189 <= 360
 0 <= x190 <= 360
 0 <= x191 <= 360
 0 <= x192 <= 360
 0 <= x193 <= 360
 0 <= x194 <= 360
 0 <= x195 <= 360
 0 <= x196 <= 360
 0 <= x197 <= 360
 0 <= x198 <= 360
Binaries
 x1  x2  x3  x4  x5  x6  x7  x8  x9  x10  x11  x12  x13  x14  x15  x16  x17 
 x18  x19  x20  x21  x22  x23  x24  x25  x26  x27  x28  x29  x30  x31  x32 
 x33  x34  x35  x36  x37  x38  x39  x40  x41  x42  x43  x44  x45  x46  x47 
 x48  x49  x50  x51  x52  x53  x54  x55  x56  x57  x58  x59  x60  x61  x62 
 x63  x64  x65  x66  x67  x68  x69  x70  x71  x72  x73  x74  x75  x76  x77 
 x78  x79  x80  x81  x82  x83  x84  x85  x86  x87  x88  x89  x90  x91  x92 
 x93  x94  x95  x96  x97  x98  x99  x100  x101  x102  x103  x104  x105  x106 
 x107  x108 
End
